








































































































73 52 34 6 53 5 24 39 
56 32 21 66 50 26 74 18 
68 49 37 0 61 1 27 4 
60 70 23 43 64 36 75 44 
31 33 17 12 30 16 38 9 45 
40 65 76 7 62 28 19 35 15 
8 54 13 67 46 14 48 29 
3 25 58 72 47 51 
69 57 2 63 71 59 41 10 42 
55 20 11 22 
